c nIsolatedPIs 0
c maxPI 8
p cnf 28 61
c gate 9 1 -6 0
1 -9 0
-6 -9 0
-1 6 9 0
c gate 10 -1 6 0
-1 -10 0
6 -10 0
1 -6 10 0
c gate 11 -9 -10 0
-9 -11 0
-10 -11 0
9 10 11 0
c gate 12 -2 3 0
-2 -12 0
3 -12 0
2 -3 12 0
c gate 13 4 5 0
4 -13 0
5 -13 0
-4 -5 13 0
c gate 14 7 8 0
7 -14 0
8 -14 0
-7 -8 14 0
c gate 15 13 14 0
13 -15 0
14 -15 0
-13 -14 15 0
c gate 16 12 15 0
12 -16 0
15 -16 0
-12 -15 16 0
c gate 17 -11 16 0
-11 -17 0
16 -17 0
11 -16 17 0
c gate 18 2 3 0
2 -18 0
3 -18 0
-2 -3 18 0
c gate 19 4 -6 0
4 -19 0
-6 -19 0
-4 6 19 0
c gate 20 -8 19 0
-8 -20 0
19 -20 0
8 -19 20 0
c gate 21 18 20 0
18 -21 0
20 -21 0
-18 -20 21 0
c gate 22 -1 5 0
-1 -22 0
5 -22 0
1 -5 22 0
c gate 23 -7 -22 0
-7 -23 0
-22 -23 0
7 22 23 0
c gate 24 1 -5 0
1 -24 0
-5 -24 0
-1 5 24 0
c gate 25 7 -24 0
7 -25 0
-24 -25 0
-7 24 25 0
c gate 26 -23 -25 0
-23 -26 0
-25 -26 0
23 25 26 0
c gate 27 21 26 0
21 -27 0
26 -27 0
-21 -26 27 0
c gate 28 -17 -27 0
-17 -28 0
-27 -28 0
17 27 28 0
c PO
-28 0
